100
128
43
55
30
43
20
11
12
5
30
31
50
47
6
24
4
53
47
55
56
42
64
38
6
51
64
64
54
44
59
33
36
32
35
24
16
64
63
52
28
33
17
25
24
2
63
64
25
22
30
40
29
48
57
29
56
19
19
57
46
34
24
32
29
31
33
23
17
31
42
54
60
39
35
36
64
64
37
29
35
54
39
20
3
20
54
59
45
48
24
5
61
24
64
24
3
40
40
17
46
64